DIMACS2
80 297 207 111 164 259 208 128 205 213 145 305 109 47 290 27 96 51 29 312 217 7 301 240 302 115 294 171 80 104 265 190 242 45 262 306 257 155 247 158 216 132 53 250 156 108 124 88 263 274 72 220 252 0 222 40 253 166 94 67 23 230 157 315 151 126 232 87 68 5 303 162 201 141 14 56 113 203 19 194 134
p edge 320 1344
e 0 6 12.0
e 0 61 16.0
e 0 168 10.0
e 0 256 45.0
e 0 229 21.0
e 0 299 36.0
e 0 203 38.0
e 0 225 29.0
e 0 293 30.0
e 0 156 45.0
e 0 207 7.0
e 0 200 11.0
e 1 2 1.0
e 2 17 1.0
e 3 23 23.0
e 3 145 12.0
e 4 163 1.0
e 5 198 4.0
e 5 184 32.0
e 5 290 9.0
e 5 313 22.0
e 5 139 21.0
e 5 176 2.0
e 5 280 36.0
e 5 318 3.0
e 5 70 32.0
e 5 18 47.0
e 5 270 22.0
e 5 173 17.0
e 5 178 9.0
e 5 2 15.0
e 5 4 29.0
e 5 286 20.0
e 5 275 11.0
e 6 284 3.0
e 7 170 38.0
e 7 297 32.0
e 7 123 12.0
e 7 49 47.0
e 7 9 20.0
e 7 129 11.0
e 7 77 1.0
e 7 231 47.0
e 7 165 42.0
e 7 235 27.0
e 7 66 19.0
e 8 57 1.0
e 9 264 2.0
e 10 203 35.0
e 11 44 2.0
e 12 31 1.0
e 13 247 32.0
e 14 241 28.0
e 14 8 21.0
e 14 208 25.0
e 14 251 9.0
e 14 117 13.0
e 14 78 40.0
e 14 190 16.0
e 14 230 11.0
e 14 300 6.0
e 14 159 15.0
e 14 125 20.0
e 14 87 42.0
e 14 228 41.0
e 14 35 25.0
e 14 10 43.0
e 14 57 18.0
e 14 97 35.0
e 15 162 36.0
e 15 135 1.0
e 16 77 1.0
e 17 193 1.0
e 18 217 34.0
e 18 310 5.0
e 19 80 10.0
e 19 96 16.0
e 19 79 2.0
e 19 194 3.0
e 19 295 19.0
e 19 82 6.0
e 19 206 14.0
e 19 76 35.0
e 19 276 2.0
e 19 157 1.0
e 19 83 49.0
e 19 202 13.0
e 19 58 5.0
e 19 9 48.0
e 19 23 41.0
e 19 221 8.0
e 19 229 38.0
e 20 248 1.0
e 21 244 1.0
e 22 121 2.0
e 23 215 30.0
e 23 29 14.0
e 23 103 30.0
e 23 224 40.0
e 23 274 37.0
e 23 161 20.0
e 23 268 16.0
e 23 123 38.0
e 23 156 26.0
e 23 298 8.0
e 23 88 38.0
e 23 297 47.0
e 23 317 11.0
e 23 273 40.0
e 24 75 2.0
e 25 9 1.0
e 26 269 1.0
e 27 51 5.0
e 27 269 18.0
e 27 278 11.0
e 27 192 22.0
e 27 7 13.0
e 27 34 29.0
e 27 97 17.0
e 27 87 19.0
e 27 104 33.0
e 27 11 8.0
e 27 20 15.0
e 27 262 10.0
e 27 304 17.0
e 27 247 16.0
e 27 188 46.0
e 27 243 46.0
e 28 284 1.0
e 29 21 5.0
e 29 255 25.0
e 29 73 3.0
e 29 111 5.0
e 29 235 16.0
e 29 76 38.0
e 29 81 7.0
e 29 41 17.0
e 29 119 48.0
e 29 9 22.0
e 29 36 16.0
e 29 246 40.0
e 29 5 10.0
e 29 130 24.0
e 29 204 21.0
e 30 247 48.0
e 31 60 1.0
e 32 191 1.0
e 33 37 1.0
e 34 21 1.0
e 35 290 38.0
e 36 11 3.0
e 37 192 2.0
e 38 266 2.0
e 39 122 1.0
e 39 0 10.0
e 40 242 10.0
e 40 195 13.0
e 40 81 18.0
e 40 274 41.0
e 40 233 39.0
e 40 154 21.0
e 40 89 34.0
e 40 177 8.0
e 40 208 27.0
e 40 316 44.0
e 40 289 35.0
e 40 219 6.0
e 40 210 44.0
e 40 265 12.0
e 40 136 41.0
e 40 50 12.0
e 41 298 1.0
e 42 26 2.0
e 43 177 1.0
e 44 245 1.0
e 45 7 16.0
e 45 315 2.0
e 45 212 48.0
e 45 256 49.0
e 45 252 31.0
e 45 27 4.0
e 45 53 39.0
e 45 133 2.0
e 45 186 31.0
e 45 179 40.0
e 45 318 40.0
e 45 259 12.0
e 45 250 36.0
e 45 150 16.0
e 45 33 2.0
e 45 209 40.0
e 46 48 1.0
e 47 48 42.0
e 47 90 46.0
e 47 107 23.0
e 47 179 24.0
e 47 162 43.0
e 47 120 37.0
e 47 160 12.0
e 47 99 40.0
e 47 198 24.0
e 47 195 42.0
e 47 130 22.0
e 47 22 43.0
e 47 36 3.0
e 47 75 34.0
e 47 298 20.0
e 47 305 19.0
e 47 35 41.0
e 48 201 38.0
e 49 238 1.0
e 50 7 45.0
e 51 292 32.0
e 51 307 46.0
e 51 87 10.0
e 51 83 48.0
e 51 257 9.0
e 51 121 47.0
e 51 285 29.0
e 51 311 42.0
e 51 239 27.0
e 51 1 32.0
e 51 104 26.0
e 51 76 32.0
e 51 206 26.0
e 51 45 46.0
e 51 226 41.0
e 51 160 31.0
e 52 235 1.0
e 53 208 4.0
e 53 52 32.0
e 53 25 48.0
e 53 317 21.0
e 53 118 45.0
e 53 65 45.0
e 53 263 45.0
e 53 27 17.0
e 53 73 18.0
e 53 169 48.0
e 53 289 9.0
e 53 218 43.0
e 53 227 5.0
e 53 189 1.0
e 53 29 18.0
e 54 65 1.0
e 55 244 2.0
e 56 249 14.0
e 56 115 2.0
e 56 273 19.0
e 56 276 14.0
e 56 226 4.0
e 56 36 5.0
e 56 277 17.0
e 56 227 2.0
e 56 62 35.0
e 56 106 41.0
e 56 240 44.0
e 56 64 39.0
e 56 299 12.0
e 56 12 28.0
e 56 126 13.0
e 56 288 25.0
e 57 114 1.0
e 58 205 15.0
e 58 192 1.0
e 59 250 3.0
e 60 308 1.0
e 61 50 3.0
e 62 53 6.0
e 63 315 47.0
e 63 254 1.0
e 64 238 1.0
e 65 254 1.0
e 66 262 48.0
e 66 306 48.0
e 66 27 42.0
e 66 105 4.0
e 67 141 48.0
e 67 207 35.0
e 67 212 19.0
e 67 263 42.0
e 67 277 13.0
e 67 282 43.0
e 67 228 31.0
e 67 168 47.0
e 67 256 45.0
e 67 302 16.0
e 67 241 5.0
e 67 222 20.0
e 67 131 46.0
e 67 225 26.0
e 67 173 40.0
e 67 174 25.0
e 68 179 21.0
e 68 139 42.0
e 68 265 26.0
e 68 15 20.0
e 68 104 35.0
e 68 88 44.0
e 68 69 19.0
e 68 131 36.0
e 68 215 36.0
e 68 80 41.0
e 68 6 34.0
e 68 0 31.0
e 68 205 11.0
e 68 163 37.0
e 68 100 46.0
e 68 300 31.0
e 69 76 2.0
e 70 48 1.0
e 71 247 10.0
e 71 253 28.0
e 72 285 49.0
e 72 69 30.0
e 72 224 19.0
e 72 175 15.0
e 72 80 46.0
e 72 99 30.0
e 72 318 29.0
e 72 10 40.0
e 72 156 19.0
e 72 6 5.0
e 72 7 32.0
e 72 272 31.0
e 72 286 39.0
e 72 209 1.0
e 72 265 20.0
e 73 164 27.0
e 74 111 47.0
e 74 158 15.0
e 75 282 2.0
e 76 72 14.0
e 77 84 1.0
e 78 263 38.0
e 79 303 33.0
e 80 277 42.0
e 80 126 10.0
e 80 55 26.0
e 80 107 5.0
e 80 273 13.0
e 80 45 4.0
e 80 186 3.0
e 80 220 7.0
e 80 184 48.0
e 80 269 49.0
e 80 42 4.0
e 80 302 42.0
e 81 84 2.0
e 82 0 10.0
e 83 108 8.0
e 84 310 1.0
e 85 161 2.0
e 85 103 1.0
e 86 251 1.0
e 87 127 4.0
e 87 310 1.0
e 87 235 37.0
e 87 137 9.0
e 87 257 12.0
e 87 83 37.0
e 87 260 49.0
e 87 67 35.0
e 87 314 27.0
e 87 258 33.0
e 87 70 10.0
e 87 241 40.0
e 87 49 25.0
e 87 190 16.0
e 88 37 38.0
e 88 232 38.0
e 88 236 33.0
e 88 261 41.0
e 88 146 18.0
e 88 122 30.0
e 88 185 24.0
e 88 303 41.0
e 88 58 44.0
e 88 38 39.0
e 88 4 12.0
e 88 180 1.0
e 88 131 27.0
e 88 12 48.0
e 89 179 1.0
e 90 146 2.0
e 91 35 2.0
e 92 148 2.0
e 93 136 1.0
e 94 275 1.0
e 94 201 47.0
e 94 14 14.0
e 94 266 16.0
e 94 60 11.0
e 94 112 32.0
e 94 4 30.0
e 94 20 47.0
e 94 189 25.0
e 94 165 31.0
e 94 297 37.0
e 94 23 27.0
e 94 258 34.0
e 94 75 46.0
e 94 229 35.0
e 94 259 17.0
e 94 272 20.0
e 95 253 14.0
e 95 153 1.0
e 96 64 11.0
e 96 28 30.0
e 96 231 43.0
e 96 77 17.0
e 96 23 18.0
e 96 156 48.0
e 96 2 25.0
e 96 257 15.0
e 96 106 12.0
e 96 264 35.0
e 96 194 19.0
e 96 65 43.0
e 96 3 36.0
e 96 129 8.0
e 96 305 38.0
e 97 255 4.0
e 98 44 1.0
e 98 104 45.0
e 99 210 2.0
e 100 103 3.0
e 101 145 47.0
e 101 129 1.0
e 101 267 4.0
e 102 162 45.0
e 103 223 1.0
e 104 102 22.0
e 104 224 31.0
e 104 174 35.0
e 104 71 37.0
e 104 49 13.0
e 104 32 33.0
e 104 216 33.0
e 104 234 4.0
e 104 31 40.0
e 104 188 15.0
e 104 285 49.0
e 104 245 31.0
e 104 80 13.0
e 105 237 1.0
e 106 268 2.0
e 107 306 47.0
e 108 230 44.0
e 108 259 21.0
e 108 290 16.0
e 108 31 14.0
e 108 194 47.0
e 108 204 21.0
e 108 149 6.0
e 108 113 39.0
e 108 181 43.0
e 108 272 16.0
e 108 87 18.0
e 108 295 31.0
e 108 253 15.0
e 108 308 11.0
e 108 180 19.0
e 109 222 21.0
e 109 90 19.0
e 109 303 47.0
e 109 180 4.0
e 109 159 41.0
e 109 297 48.0
e 109 314 7.0
e 109 296 11.0
e 109 257 5.0
e 109 87 4.0
e 109 252 36.0
e 109 270 36.0
e 109 194 35.0
e 109 166 47.0
e 109 258 27.0
e 109 116 32.0
e 109 195 35.0
e 110 130 2.0
e 111 30 49.0
e 111 252 47.0
e 111 56 47.0
e 111 291 4.0
e 111 58 25.0
e 111 3 24.0
e 111 18 10.0
e 111 315 39.0
e 111 108 33.0
e 111 14 47.0
e 111 178 33.0
e 111 123 13.0
e 111 274 36.0
e 111 309 27.0
e 112 274 36.0
e 113 290 5.0
e 113 66 7.0
e 113 234 18.0
e 113 24 10.0
e 113 17 24.0
e 113 300 18.0
e 113 146 21.0
e 113 226 48.0
e 113 143 7.0
e 113 286 27.0
e 113 299 19.0
e 113 217 5.0
e 113 98 4.0
e 113 201 1.0
e 113 271 4.0
e 113 224 29.0
e 114 313 1.0
e 115 117 38.0
e 115 208 28.0
e 115 164 21.0
e 115 297 1.0
e 115 51 42.0
e 115 162 25.0
e 115 249 39.0
e 115 152 46.0
e 115 280 27.0
e 115 73 24.0
e 115 185 13.0
e 115 257 18.0
e 115 198 25.0
e 115 151 7.0
e 115 118 24.0
e 115 250 37.0
e 116 296 1.0
e 117 67 34.0
e 118 1 1.0
e 119 260 1.0
e 120 149 1.0
e 121 88 43.0
e 122 167 1.0
e 123 29 24.0
e 124 197 33.0
e 124 259 33.0
e 124 243 8.0
e 124 288 5.0
e 124 253 21.0
e 124 38 44.0
e 124 20 22.0
e 124 92 22.0
e 124 99 33.0
e 124 10 30.0
e 124 257 9.0
e 124 262 30.0
e 124 32 4.0
e 124 56 26.0
e 124 80 8.0
e 124 263 13.0
e 124 174 47.0
e 125 80 39.0
e 126 173 6.0
e 126 283 1.0
e 126 227 21.0
e 126 186 43.0
e 126 89 25.0
e 126 137 43.0
e 126 237 13.0
e 126 61 42.0
e 126 104 14.0
e 126 124 39.0
e 126 223 6.0
e 126 108 25.0
e 127 55 1.0
e 128 186 5.0
e 128 28 30.0
e 128 238 2.0
e 128 80 10.0
e 128 11 13.0
e 128 133 12.0
e 128 35 15.0
e 128 111 13.0
e 128 289 45.0
e 128 54 8.0
e 128 3 49.0
e 128 151 47.0
e 128 194 31.0
e 128 23 38.0
e 128 138 42.0
e 128 177 33.0
e 128 19 34.0
e 129 26 1.0
e 130 6 1.0
e 131 0 9.0
e 132 284 32.0
e 132 207 37.0
e 132 26 38.0
e 132 278 47.0
e 132 49 18.0
e 132 233 45.0
e 132 56 33.0
e 132 311 13.0
e 132 217 25.0
e 132 106 41.0
e 132 181 40.0
e 132 81 16.0
e 132 32 45.0
e 132 183 11.0
e 132 108 28.0
e 132 281 3.0
e 133 245 1.0
e 134 215 20.0
e 134 95 5.0
e 134 299 6.0
e 134 89 37.0
e 134 296 48.0
e 134 124 35.0
e 134 116 20.0
e 134 304 41.0
e 134 50 24.0
e 134 181 6.0
e 134 51 45.0
e 134 257 25.0
e 134 114 41.0
e 134 85 39.0
e 134 99 16.0
e 134 293 29.0
e 134 182 22.0
e 135 270 2.0
e 136 107 1.0
e 137 8 2.0
e 138 204 2.0
e 139 111 2.0
e 140 148 2.0
e 141 2 18.0
e 141 187 35.0
e 141 162 46.0
e 141 220 18.0
e 141 217 16.0
e 141 213 10.0
e 141 81 29.0
e 141 252 49.0
e 141 250 17.0
e 141 214 8.0
e 141 43 13.0
e 141 16 34.0
e 141 218 43.0
e 141 160 19.0
e 141 98 28.0
e 141 231 23.0
e 142 217 35.0
e 143 225 1.0
e 144 260 2.0
e 144 61 1.0
e 145 39 11.0
e 145 280 20.0
e 145 24 14.0
e 145 50 18.0
e 145 104 30.0
e 145 91 29.0
e 145 273 2.0
e 145 106 3.0
e 145 130 42.0
e 145 114 36.0
e 145 82 1.0
e 145 315 47.0
e 145 242 26.0
e 145 74 3.0
e 145 212 10.0
e 146 123 5.0
e 147 40 39.0
e 147 109 17.0
e 148 279 1.0
e 149 216 25.0
e 150 15 1.0
e 151 297 3.0
e 151 232 32.0
e 151 263 46.0
e 151 86 14.0
e 151 60 7.0
e 151 234 35.0
e 151 312 40.0
e 151 208 3.0
e 151 245 12.0
e 151 207 36.0
e 151 182 13.0
e 151 116 18.0
e 151 67 24.0
e 151 200 24.0
e 151 298 20.0
e 152 266 1.0
e 153 278 1.0
e 154 295 2.0
e 155 37 29.0
e 155 82 11.0
e 155 147 26.0
e 155 33 24.0
e 155 55 1.0
e 155 175 43.0
e 155 162 9.0
e 155 34 13.0
e 155 206 48.0
e 155 62 29.0
e 155 38 2.0
e 155 169 14.0
e 155 234 18.0
e 155 134 5.0
e 155 276 4.0
e 155 314 24.0
e 155 259 14.0
e 156 27 15.0
e 156 162 2.0
e 156 252 27.0
e 156 169 8.0
e 156 47 48.0
e 156 164 27.0
e 156 280 44.0
e 156 148 29.0
e 156 24 20.0
e 156 166 43.0
e 156 182 9.0
e 156 44 7.0
e 157 97 37.0
e 157 188 4.0
e 157 154 1.0
e 157 104 31.0
e 157 203 25.0
e 157 124 36.0
e 157 287 2.0
e 157 183 42.0
e 157 11 2.0
e 157 168 35.0
e 157 194 22.0
e 157 190 2.0
e 157 110 4.0
e 157 147 24.0
e 157 196 37.0
e 157 96 15.0
e 158 81 6.0
e 158 281 29.0
e 158 97 46.0
e 158 195 19.0
e 158 288 43.0
e 158 71 21.0
e 158 175 27.0
e 158 25 46.0
e 158 12 22.0
e 158 236 28.0
e 158 148 15.0
e 158 176 24.0
e 158 34 31.0
e 158 28 4.0
e 158 228 2.0
e 158 283 18.0
e 159 241 1.0
e 160 173 1.0
e 161 317 1.0
e 162 125 48.0
e 162 290 32.0
e 162 83 46.0
e 162 39 12.0
e 162 229 49.0
e 162 281 25.0
e 162 53 24.0
e 162 116 2.0
e 162 129 15.0
e 162 230 33.0
e 163 30 1.0
e 164 34 29.0
e 164 276 40.0
e 164 150 1.0
e 164 5 12.0
e 164 19 15.0
e 164 257 45.0
e 164 303 42.0
e 164 190 44.0
e 164 170 14.0
e 164 296 20.0
e 164 139 34.0
e 164 288 16.0
e 164 134 16.0
e 164 0 19.0
e 165 214 1.0
e 166 149 6.0
e 166 187 26.0
e 166 138 49.0
e 166 259 13.0
e 166 198 43.0
e 166 291 30.0
e 166 45 4.0
e 166 236 36.0
e 166 157 18.0
e 166 250 8.0
e 166 222 49.0
e 166 42 18.0
e 166 266 30.0
e 166 164 33.0
e 167 178 1.0
e 168 239 2.0
e 169 293 1.0
e 170 223 2.0
e 171 45 33.0
e 171 147 47.0
e 171 74 45.0
e 171 109 17.0
e 171 110 30.0
e 171 162 33.0
e 171 304 12.0
e 171 219 14.0
e 171 40 25.0
e 171 17 2.0
e 171 267 39.0
e 171 90 15.0
e 171 316 6.0
e 171 41 9.0
e 171 287 29.0
e 171 315 32.0
e 172 221 2.0
e 173 13 1.0
e 174 227 1.0
e 175 33 1.0
e 176 228 1.0
e 177 171 19.0
e 178 105 1.0
e 179 304 1.0
e 180 102 1.0
e 181 165 1.0
e 182 189 1.0
e 183 196 1.0
e 184 136 1.0
e 185 1 1.0
e 186 313 1.0
e 187 52 1.0
e 188 226 1.0
e 189 156 28.0
e 190 72 9.0
e 190 265 28.0
e 190 262 28.0
e 190 183 6.0
e 190 89 9.0
e 190 100 6.0
e 190 294 8.0
e 190 158 2.0
e 190 176 47.0
e 190 257 14.0
e 190 239 6.0
e 190 196 15.0
e 190 203 10.0
e 191 30 1.0
e 192 126 2.0
e 193 161 1.0
e 194 37 16.0
e 194 310 14.0
e 194 100 43.0
e 194 187 13.0
e 194 43 17.0
e 194 29 44.0
e 194 7 7.0
e 194 87 5.0
e 194 287 31.0
e 194 115 8.0
e 194 262 45.0
e 195 213 33.0
e 196 0 7.0
e 197 0 21.0
e 198 255 2.0
e 199 13 1.0
e 199 316 1.0
e 200 279 2.0
e 201 265 21.0
e 201 141 47.0
e 201 305 14.0
e 201 109 16.0
e 201 142 42.0
e 201 168 1.0
e 201 131 32.0
e 201 25 30.0
e 201 29 46.0
e 201 46 30.0
e 201 264 33.0
e 201 219 2.0
e 201 64 35.0
e 201 143 39.0
e 202 259 20.0
e 203 126 9.0
e 203 236 11.0
e 203 141 8.0
e 203 199 25.0
e 203 67 12.0
e 203 312 32.0
e 203 13 28.0
e 203 51 34.0
e 203 205 21.0
e 203 14 46.0
e 203 150 22.0
e 203 15 20.0
e 203 151 10.0
e 204 86 1.0
e 205 78 37.0
e 205 246 14.0
e 205 133 27.0
e 205 171 47.0
e 205 290 44.0
e 205 314 34.0
e 205 15 21.0
e 205 187 25.0
e 205 249 32.0
e 205 208 5.0
e 205 199 24.0
e 205 207 44.0
e 205 287 18.0
e 205 253 26.0
e 206 61 1.0
e 207 160 32.0
e 207 188 49.0
e 207 5 44.0
e 207 224 26.0
e 207 120 15.0
e 207 62 38.0
e 207 203 35.0
e 207 82 19.0
e 207 135 33.0
e 207 189 41.0
e 207 162 43.0
e 207 68 27.0
e 208 200 31.0
e 208 315 49.0
e 208 58 30.0
e 208 249 5.0
e 208 291 26.0
e 208 41 45.0
e 208 190 10.0
e 208 246 49.0
e 208 220 43.0
e 208 191 16.0
e 208 8 20.0
e 209 282 1.0
e 210 261 1.0
e 211 233 1.0
e 212 278 1.0
e 213 229 8.0
e 213 110 27.0
e 213 190 18.0
e 213 18 19.0
e 213 205 31.0
e 213 271 16.0
e 213 274 31.0
e 213 230 12.0
e 213 290 33.0
e 213 139 48.0
e 213 151 49.0
e 213 291 40.0
e 213 19 46.0
e 213 265 3.0
e 214 261 1.0
e 215 142 2.0
e 216 78 4.0
e 216 151 15.0
e 216 138 36.0
e 216 190 37.0
e 216 236 19.0
e 216 305 20.0
e 216 199 21.0
e 216 192 18.0
e 216 224 46.0
e 216 194 24.0
e 216 259 22.0
e 216 252 38.0
e 216 18 12.0
e 216 91 31.0
e 216 40 47.0
e 217 112 47.0
e 217 100 40.0
e 217 40 3.0
e 217 319 14.0
e 217 204 39.0
e 217 262 27.0
e 217 200 23.0
e 217 111 46.0
e 217 274 36.0
e 217 201 46.0
e 217 309 37.0
e 217 194 17.0
e 218 308 1.0
e 219 79 1.0
e 220 224 8.0
e 220 140 12.0
e 220 194 40.0
e 220 230 34.0
e 220 212 49.0
e 220 196 13.0
e 220 41 44.0
e 220 84 11.0
e 220 95 35.0
e 220 195 29.0
e 220 88 42.0
e 220 290 9.0
e 220 257 32.0
e 220 267 37.0
e 221 250 12.0
e 222 264 1.0
e 222 197 26.0
e 222 43 14.0
e 222 172 38.0
e 222 230 5.0
e 222 153 19.0
e 222 257 22.0
e 222 88 18.0
e 222 70 46.0
e 222 46 10.0
e 222 101 6.0
e 222 47 25.0
e 222 232 31.0
e 223 185 2.0
e 224 152 11.0
e 225 102 1.0
e 226 166 4.0
e 227 169 2.0
e 228 184 2.0
e 229 167 3.0
e 230 185 34.0
e 230 46 38.0
e 230 111 20.0
e 230 166 1.0
e 230 242 24.0
e 230 210 25.0
e 230 250 29.0
e 230 47 19.0
e 230 211 5.0
e 230 132 18.0
e 230 305 38.0
e 231 105 1.0
e 232 294 24.0
e 232 201 12.0
e 232 132 15.0
e 232 247 28.0
e 232 66 47.0
e 232 118 36.0
e 232 112 12.0
e 232 202 45.0
e 232 259 12.0
e 232 315 28.0
e 232 52 22.0
e 232 203 3.0
e 232 53 34.0
e 232 59 19.0
e 233 163 1.0
e 234 290 20.0
e 235 177 2.0
e 236 301 1.0
e 237 275 1.0
e 238 36 1.0
e 239 159 1.0
e 240 172 36.0
e 240 267 48.0
e 240 140 3.0
e 240 142 3.0
e 240 203 7.0
e 240 152 4.0
e 240 243 45.0
e 240 59 21.0
e 240 139 49.0
e 240 91 49.0
e 240 119 15.0
e 240 218 9.0
e 240 201 18.0
e 240 290 38.0
e 240 202 33.0
e 240 137 30.0
e 241 193 1.0
e 242 23 32.0
e 242 290 43.0
e 242 292 32.0
e 242 213 2.0
e 242 113 49.0
e 242 85 15.0
e 242 240 14.0
e 242 243 20.0
e 242 294 1.0
e 242 53 18.0
e 242 86 20.0
e 242 64 1.0
e 242 62 38.0
e 242 93 40.0
e 243 108 17.0
e 244 42 2.0
e 245 132 35.0
e 246 10 1.0
e 247 265 9.0
e 247 153 45.0
e 247 158 35.0
e 247 170 27.0
e 247 59 20.0
e 247 154 20.0
e 247 63 20.0
e 247 66 37.0
e 247 68 31.0
e 247 297 30.0
e 247 205 23.0
e 248 251 1.0
e 249 167 2.0
e 250 21 23.0
e 250 257 1.0
e 250 222 2.0
e 250 68 44.0
e 250 119 8.0
e 250 259 23.0
e 250 247 25.0
e 250 262 36.0
e 251 102 1.0
e 252 54 29.0
e 252 113 38.0
e 252 292 24.0
e 252 240 1.0
e 252 271 37.0
e 252 120 17.0
e 252 137 21.0
e 252 170 36.0
e 252 312 48.0
e 252 205 47.0
e 252 166 38.0
e 253 250 17.0
e 253 63 19.0
e 253 69 27.0
e 253 72 46.0
e 253 315 34.0
e 253 85 2.0
e 253 121 47.0
e 253 73 33.0
e 253 232 16.0
e 253 242 26.0
e 253 301 22.0
e 253 74 9.0
e 254 150 2.0
e 255 13 2.0
e 256 211 1.0
e 257 118 46.0
e 257 248 33.0
e 257 63 39.0
e 257 206 40.0
e 257 290 24.0
e 258 93 1.0
e 259 56 8.0
e 259 257 27.0
e 259 263 16.0
e 259 71 8.0
e 259 230 47.0
e 259 122 20.0
e 260 22 2.0
e 261 65 1.0
e 262 138 2.0
e 262 207 23.0
e 262 92 29.0
e 262 72 43.0
e 262 73 49.0
e 262 113 23.0
e 262 88 36.0
e 262 126 41.0
e 262 208 5.0
e 262 93 20.0
e 263 44 2.0
e 263 290 41.0
e 263 92 24.0
e 263 101 4.0
e 263 209 31.0
e 263 262 24.0
e 263 207 4.0
e 263 72 18.0
e 263 115 28.0
e 263 230 22.0
e 263 265 47.0
e 264 16 1.0
e 265 90 33.0
e 265 94 17.0
e 265 95 19.0
e 265 140 21.0
e 265 207 11.0
e 265 242 12.0
e 265 142 24.0
e 265 96 7.0
e 265 216 48.0
e 266 140 1.0
e 267 159 1.0
e 268 54 2.0
e 269 59 1.0
e 270 218 1.0
e 271 7 8.0
e 272 107 1.0
e 273 172 2.0
e 274 24 44.0
e 274 220 41.0
e 274 94 32.0
e 274 96 38.0
e 274 115 40.0
e 274 121 7.0
e 274 294 34.0
e 274 126 38.0
e 274 208 18.0
e 274 98 20.0
e 274 123 16.0
e 275 259 41.0
e 276 7 39.0
e 277 96 31.0
e 278 54 2.0
e 279 183 2.0
e 280 302 27.0
e 281 68 42.0
e 282 12 2.0
e 283 57 2.0
e 284 222 7.0
e 285 80 36.0
e 286 191 1.0
e 287 126 3.0
e 288 283 2.0
e 289 254 1.0
e 290 33 44.0
e 290 141 5.0
e 290 94 28.0
e 290 166 5.0
e 291 22 1.0
e 292 16 1.0
e 293 279 1.0
e 294 250 28.0
e 294 252 44.0
e 294 290 8.0
e 294 208 7.0
e 294 302 7.0
e 294 247 29.0
e 294 101 3.0
e 294 171 10.0
e 294 248 25.0
e 294 153 6.0
e 294 262 3.0
e 294 126 31.0
e 294 127 24.0
e 295 193 1.0
e 296 22 3.0
e 297 244 20.0
e 297 127 45.0
e 297 209 25.0
e 297 213 34.0
e 297 300 32.0
e 297 319 17.0
e 297 154 21.0
e 297 290 25.0
e 297 299 6.0
e 297 155 23.0
e 298 268 2.0
e 299 213 38.0
e 300 292 1.0
e 301 283 4.0
e 301 213 12.0
e 301 133 3.0
e 301 171 46.0
e 301 250 42.0
e 301 127 26.0
e 301 128 8.0
e 301 132 4.0
e 301 262 26.0
e 301 214 38.0
e 301 216 23.0
e 301 134 20.0
e 301 143 21.0
e 301 135 26.0
e 301 315 33.0
e 302 7 21.0
e 302 128 10.0
e 302 135 4.0
e 302 172 9.0
e 302 216 12.0
e 302 217 9.0
e 302 144 31.0
e 302 230 13.0
e 302 311 46.0
e 302 145 35.0
e 302 155 4.0
e 302 156 9.0
e 302 157 49.0
e 303 117 40.0
e 303 217 48.0
e 303 128 18.0
e 303 220 46.0
e 303 144 43.0
e 303 221 36.0
e 303 222 21.0
e 303 263 38.0
e 303 158 8.0
e 303 305 35.0
e 303 236 18.0
e 303 145 31.0
e 304 211 2.0
e 305 282 34.0
e 305 232 23.0
e 305 271 45.0
e 305 217 5.0
e 305 294 21.0
e 305 220 2.0
e 305 319 34.0
e 305 265 23.0
e 305 257 36.0
e 305 290 24.0
e 305 162 36.0
e 306 7 16.0
e 306 144 49.0
e 306 145 5.0
e 306 221 41.0
e 306 307 25.0
e 306 305 19.0
e 306 155 32.0
e 306 156 7.0
e 306 247 36.0
e 306 157 22.0
e 306 164 18.0
e 306 250 18.0
e 306 222 38.0
e 306 232 48.0
e 306 236 18.0
e 307 279 1.0
e 308 268 2.0
e 309 281 1.0
e 310 244 1.0
e 311 303 12.0
e 312 26 19.0
e 312 156 8.0
e 312 164 22.0
e 312 237 43.0
e 312 240 39.0
e 312 274 41.0
e 312 294 14.0
e 312 242 48.0
e 312 250 7.0
e 312 253 36.0
e 312 257 24.0
e 312 259 47.0
e 312 263 43.0
e 312 297 4.0
e 313 125 1.0
e 314 247 16.0
e 315 79 34.0
e 315 263 3.0
e 315 252 29.0
e 315 259 9.0
e 315 265 48.0
e 315 274 45.0
e 315 294 25.0
e 315 297 4.0
e 316 202 2.0
e 317 97 2.0
e 318 197 1.0
e 319 193 2.0
